RAW/CMTY/fspd-mid/CMT2Y.vrp_seed-4.out
684.2114439	0.608	117.617
