RAW/CMTY/fspd-mid/CMT2Y.vrp_seed-4.sol
Route #1: 4 45 27 52 8 46 34 67
Route #2: 26 12 58 10 72 39 9 32 44 40 17
Route #3: 3 49 24 18 50 25 55 31 38 65 66 11 53
Route #4: 30 48 47 21 61 22 64 42 43 41 56 23 63 16 6
Route #5: 29 5 36 69 71 60 70 20 37 15 57 13 54 19 59 14 35 7
Route #6: 51 33 1 73 62 28 74 2 68 75
Cost 684.211444